p cnf 996 2934
c inputs: 1 2 3 4 5 6 7 8 9 10 11 12 13 14 15 16 17 18
c variables for gates: 19 ... 978
c outputs: 979 980 981 982 983 984 985 986 987 988 989 990 991 992 993 994 995 996
c random input: -1 2 -3 -4 5 6 7 8 9 10 11 12 -13 -14 -15 16 17 -18
19 -2 -10 0
-19 2 0
-19 10 0
20 -1 -11 0
-20 1 0
-20 11 0
21 -19 20 0
-21 19 0
-21 -20 0
22 -20 19 0
-22 20 0
-22 -19 0
23 22 21 0
-23 -22 0
-23 -21 0
24 -2 -10 0
-24 2 0
-24 10 0
25 -1 -11 0
-25 1 0
-25 11 0
26 -24 -25 0
-26 24 0
-26 25 0
27 -3 -10 0
-27 3 0
-27 10 0
28 -2 -11 0
-28 2 0
-28 11 0
29 -28 -27 0
-29 28 0
-29 27 0
30 -3 -10 0
-30 3 0
-30 10 0
31 -30 -26 0
-31 30 0
-31 26 0
32 -2 -11 0
-32 2 0
-32 11 0
33 -32 -26 0
-33 32 0
-33 26 0
34 31 33 0
-34 -31 0
-34 -33 0
35 29 -34 0
-35 -29 0
-35 34 0
36 -3 -10 0
-36 3 0
-36 10 0
37 -2 -11 0
-37 2 0
-37 11 0
38 -37 26 0
-38 37 0
-38 -26 0
39 37 -26 0
-39 -37 0
-39 26 0
40 39 38 0
-40 -39 0
-40 -38 0
41 -36 -40 0
-41 36 0
-41 40 0
42 36 40 0
-42 -36 0
-42 -40 0
43 42 41 0
-43 -42 0
-43 -41 0
44 -4 -10 0
-44 4 0
-44 10 0
45 -3 -11 0
-45 3 0
-45 11 0
46 -44 -45 0
-46 44 0
-46 45 0
47 -4 -10 0
-47 4 0
-47 10 0
48 -47 35 0
-48 47 0
-48 -35 0
49 -3 -11 0
-49 3 0
-49 11 0
50 -49 35 0
-50 49 0
-50 -35 0
51 50 48 0
-51 -50 0
-51 -48 0
52 46 -51 0
-52 -46 0
-52 51 0
53 -4 -10 0
-53 4 0
-53 10 0
54 -3 -11 0
-54 3 0
-54 11 0
55 -54 -35 0
-55 54 0
-55 35 0
56 54 35 0
-56 -54 0
-56 -35 0
57 55 56 0
-57 -55 0
-57 -56 0
58 -53 -57 0
-58 53 0
-58 57 0
59 53 57 0
-59 -53 0
-59 -57 0
60 59 58 0
-60 -59 0
-60 -58 0
61 -5 -10 0
-61 5 0
-61 10 0
62 -4 -11 0
-62 4 0
-62 11 0
63 -62 -61 0
-63 62 0
-63 61 0
64 -5 -10 0
-64 5 0
-64 10 0
65 -64 52 0
-65 64 0
-65 -52 0
66 -4 -11 0
-66 4 0
-66 11 0
67 -66 52 0
-67 66 0
-67 -52 0
68 67 65 0
-68 -67 0
-68 -65 0
69 63 -68 0
-69 -63 0
-69 68 0
70 -5 -10 0
-70 5 0
-70 10 0
71 -4 -11 0
-71 4 0
-71 11 0
72 -71 -52 0
-72 71 0
-72 52 0
73 71 52 0
-73 -71 0
-73 -52 0
74 73 72 0
-74 -73 0
-74 -72 0
75 -70 -74 0
-75 70 0
-75 74 0
76 70 74 0
-76 -70 0
-76 -74 0
77 76 75 0
-77 -76 0
-77 -75 0
78 -6 -10 0
-78 6 0
-78 10 0
79 -5 -11 0
-79 5 0
-79 11 0
80 -78 -79 0
-80 78 0
-80 79 0
81 -6 -10 0
-81 6 0
-81 10 0
82 -81 69 0
-82 81 0
-82 -69 0
83 -5 -11 0
-83 5 0
-83 11 0
84 -83 69 0
-84 83 0
-84 -69 0
85 84 82 0
-85 -84 0
-85 -82 0
86 80 -85 0
-86 -80 0
-86 85 0
87 -6 -10 0
-87 6 0
-87 10 0
88 -5 -11 0
-88 5 0
-88 11 0
89 -88 -69 0
-89 88 0
-89 69 0
90 88 69 0
-90 -88 0
-90 -69 0
91 89 90 0
-91 -89 0
-91 -90 0
92 -87 -91 0
-92 87 0
-92 91 0
93 87 91 0
-93 -87 0
-93 -91 0
94 92 93 0
-94 -92 0
-94 -93 0
95 -7 -10 0
-95 7 0
-95 10 0
96 -6 -11 0
-96 6 0
-96 11 0
97 -96 -95 0
-97 96 0
-97 95 0
98 -7 -10 0
-98 7 0
-98 10 0
99 -98 86 0
-99 98 0
-99 -86 0
100 -6 -11 0
-100 6 0
-100 11 0
101 -100 86 0
-101 100 0
-101 -86 0
102 99 101 0
-102 -99 0
-102 -101 0
103 97 -102 0
-103 -97 0
-103 102 0
104 -7 -10 0
-104 7 0
-104 10 0
105 -6 -11 0
-105 6 0
-105 11 0
106 -105 -86 0
-106 105 0
-106 86 0
107 105 86 0
-107 -105 0
-107 -86 0
108 106 107 0
-108 -106 0
-108 -107 0
109 -104 -108 0
-109 104 0
-109 108 0
110 104 108 0
-110 -104 0
-110 -108 0
111 109 110 0
-111 -109 0
-111 -110 0
112 -8 -10 0
-112 8 0
-112 10 0
113 -7 -11 0
-113 7 0
-113 11 0
114 -113 -112 0
-114 113 0
-114 112 0
115 -8 -10 0
-115 8 0
-115 10 0
116 -115 103 0
-116 115 0
-116 -103 0
117 -7 -11 0
-117 7 0
-117 11 0
118 -117 103 0
-118 117 0
-118 -103 0
119 116 118 0
-119 -116 0
-119 -118 0
120 114 -119 0
-120 -114 0
-120 119 0
121 -8 -10 0
-121 8 0
-121 10 0
122 -7 -11 0
-122 7 0
-122 11 0
123 -122 -103 0
-123 122 0
-123 103 0
124 122 103 0
-124 -122 0
-124 -103 0
125 123 124 0
-125 -123 0
-125 -124 0
126 -121 -125 0
-126 121 0
-126 125 0
127 121 125 0
-127 -121 0
-127 -125 0
128 127 126 0
-128 -127 0
-128 -126 0
129 -9 -10 0
-129 9 0
-129 10 0
130 -8 -11 0
-130 8 0
-130 11 0
131 -129 -130 0
-131 129 0
-131 130 0
132 -9 -10 0
-132 9 0
-132 10 0
133 -132 120 0
-133 132 0
-133 -120 0
134 -8 -11 0
-134 8 0
-134 11 0
135 -134 120 0
-135 134 0
-135 -120 0
136 133 135 0
-136 -133 0
-136 -135 0
137 131 -136 0
-137 -131 0
-137 136 0
138 -9 -10 0
-138 9 0
-138 10 0
139 -8 -11 0
-139 8 0
-139 11 0
140 -139 -120 0
-140 139 0
-140 120 0
141 139 120 0
-141 -139 0
-141 -120 0
142 140 141 0
-142 -140 0
-142 -141 0
143 -138 -142 0
-143 138 0
-143 142 0
144 138 142 0
-144 -138 0
-144 -142 0
145 143 144 0
-145 -143 0
-145 -144 0
146 -9 -11 0
-146 9 0
-146 11 0
147 -146 137 0
-147 146 0
-147 -137 0
148 -9 -11 0
-148 9 0
-148 11 0
149 -148 -137 0
-149 148 0
-149 137 0
150 148 137 0
-150 -148 0
-150 -137 0
151 149 150 0
-151 -149 0
-151 -150 0
152 -1 -12 0
-152 1 0
-152 12 0
153 152 43 0
-153 -152 0
-153 -43 0
154 -152 -43 0
-154 152 0
-154 43 0
155 154 153 0
-155 -154 0
-155 -153 0
156 -1 -12 0
-156 1 0
-156 12 0
157 -156 43 0
-157 156 0
-157 -43 0
158 -2 -12 0
-158 2 0
-158 12 0
159 -158 60 0
-159 158 0
-159 -60 0
160 60 -157 0
-160 -60 0
-160 157 0
161 -2 -12 0
-161 2 0
-161 12 0
162 -161 -157 0
-162 161 0
-162 157 0
163 162 160 0
-163 -162 0
-163 -160 0
164 159 -163 0
-164 -159 0
-164 163 0
165 -2 -12 0
-165 2 0
-165 12 0
166 -165 157 0
-166 165 0
-166 -157 0
167 165 -157 0
-167 -165 0
-167 157 0
168 167 166 0
-168 -167 0
-168 -166 0
169 60 -168 0
-169 -60 0
-169 168 0
170 -60 168 0
-170 60 0
-170 -168 0
171 170 169 0
-171 -170 0
-171 -169 0
172 -3 -12 0
-172 3 0
-172 12 0
173 -172 77 0
-173 172 0
-173 -77 0
174 77 164 0
-174 -77 0
-174 -164 0
175 -3 -12 0
-175 3 0
-175 12 0
176 -175 164 0
-176 175 0
-176 -164 0
177 174 176 0
-177 -174 0
-177 -176 0
178 173 -177 0
-178 -173 0
-178 177 0
179 -3 -12 0
-179 3 0
-179 12 0
180 -179 -164 0
-180 179 0
-180 164 0
181 179 164 0
-181 -179 0
-181 -164 0
182 180 181 0
-182 -180 0
-182 -181 0
183 -182 77 0
-183 182 0
-183 -77 0
184 182 -77 0
-184 -182 0
-184 77 0
185 183 184 0
-185 -183 0
-185 -184 0
186 -4 -12 0
-186 4 0
-186 12 0
187 -186 94 0
-187 186 0
-187 -94 0
188 94 178 0
-188 -94 0
-188 -178 0
189 -4 -12 0
-189 4 0
-189 12 0
190 -189 178 0
-190 189 0
-190 -178 0
191 188 190 0
-191 -188 0
-191 -190 0
192 187 -191 0
-192 -187 0
-192 191 0
193 -4 -12 0
-193 4 0
-193 12 0
194 -193 -178 0
-194 193 0
-194 178 0
195 193 178 0
-195 -193 0
-195 -178 0
196 194 195 0
-196 -194 0
-196 -195 0
197 94 -196 0
-197 -94 0
-197 196 0
198 -94 196 0
-198 94 0
-198 -196 0
199 197 198 0
-199 -197 0
-199 -198 0
200 -5 -12 0
-200 5 0
-200 12 0
201 -200 111 0
-201 200 0
-201 -111 0
202 192 111 0
-202 -192 0
-202 -111 0
203 -5 -12 0
-203 5 0
-203 12 0
204 -203 192 0
-204 203 0
-204 -192 0
205 202 204 0
-205 -202 0
-205 -204 0
206 -205 201 0
-206 205 0
-206 -201 0
207 -5 -12 0
-207 5 0
-207 12 0
208 -207 -192 0
-208 207 0
-208 192 0
209 207 192 0
-209 -207 0
-209 -192 0
210 208 209 0
-210 -208 0
-210 -209 0
211 -210 111 0
-211 210 0
-211 -111 0
212 210 -111 0
-212 -210 0
-212 111 0
213 212 211 0
-213 -212 0
-213 -211 0
214 -6 -12 0
-214 6 0
-214 12 0
215 -214 128 0
-215 214 0
-215 -128 0
216 128 206 0
-216 -128 0
-216 -206 0
217 -6 -12 0
-217 6 0
-217 12 0
218 -217 206 0
-218 217 0
-218 -206 0
219 216 218 0
-219 -216 0
-219 -218 0
220 215 -219 0
-220 -215 0
-220 219 0
221 -6 -12 0
-221 6 0
-221 12 0
222 -221 -206 0
-222 221 0
-222 206 0
223 221 206 0
-223 -221 0
-223 -206 0
224 223 222 0
-224 -223 0
-224 -222 0
225 128 -224 0
-225 -128 0
-225 224 0
226 -128 224 0
-226 128 0
-226 -224 0
227 225 226 0
-227 -225 0
-227 -226 0
228 -7 -12 0
-228 7 0
-228 12 0
229 -228 145 0
-229 228 0
-229 -145 0
230 145 220 0
-230 -145 0
-230 -220 0
231 -7 -12 0
-231 7 0
-231 12 0
232 -231 220 0
-232 231 0
-232 -220 0
233 230 232 0
-233 -230 0
-233 -232 0
234 229 -233 0
-234 -229 0
-234 233 0
235 -7 -12 0
-235 7 0
-235 12 0
236 -235 -220 0
-236 235 0
-236 220 0
237 235 220 0
-237 -235 0
-237 -220 0
238 236 237 0
-238 -236 0
-238 -237 0
239 145 -238 0
-239 -145 0
-239 238 0
240 -145 238 0
-240 145 0
-240 -238 0
241 239 240 0
-241 -239 0
-241 -240 0
242 -8 -12 0
-242 8 0
-242 12 0
243 -242 151 0
-243 242 0
-243 -151 0
244 151 234 0
-244 -151 0
-244 -234 0
245 -8 -12 0
-245 8 0
-245 12 0
246 -245 234 0
-246 245 0
-246 -234 0
247 244 246 0
-247 -244 0
-247 -246 0
248 243 -247 0
-248 -243 0
-248 247 0
249 -8 -12 0
-249 8 0
-249 12 0
250 -249 -234 0
-250 249 0
-250 234 0
251 249 234 0
-251 -249 0
-251 -234 0
252 250 251 0
-252 -250 0
-252 -251 0
253 151 -252 0
-253 -151 0
-253 252 0
254 -151 252 0
-254 151 0
-254 -252 0
255 254 253 0
-255 -254 0
-255 -253 0
256 -9 -12 0
-256 9 0
-256 12 0
257 -256 -147 0
-257 256 0
-257 147 0
258 248 -147 0
-258 -248 0
-258 147 0
259 -9 -12 0
-259 9 0
-259 12 0
260 -259 248 0
-260 259 0
-260 -248 0
261 260 258 0
-261 -260 0
-261 -258 0
262 257 -261 0
-262 -257 0
-262 261 0
263 -9 -12 0
-263 9 0
-263 12 0
264 -263 -248 0
-264 263 0
-264 248 0
265 263 248 0
-265 -263 0
-265 -248 0
266 264 265 0
-266 -264 0
-266 -265 0
267 -266 -147 0
-267 266 0
-267 147 0
268 266 147 0
-268 -266 0
-268 -147 0
269 268 267 0
-269 -268 0
-269 -267 0
270 -1 -13 0
-270 1 0
-270 13 0
271 270 171 0
-271 -270 0
-271 -171 0
272 -270 -171 0
-272 270 0
-272 171 0
273 271 272 0
-273 -271 0
-273 -272 0
274 -1 -13 0
-274 1 0
-274 13 0
275 -274 171 0
-275 274 0
-275 -171 0
276 -2 -13 0
-276 2 0
-276 13 0
277 -276 185 0
-277 276 0
-277 -185 0
278 -275 185 0
-278 275 0
-278 -185 0
279 -2 -13 0
-279 2 0
-279 13 0
280 -279 -275 0
-280 279 0
-280 275 0
281 280 278 0
-281 -280 0
-281 -278 0
282 -281 277 0
-282 281 0
-282 -277 0
283 -2 -13 0
-283 2 0
-283 13 0
284 -283 275 0
-284 283 0
-284 -275 0
285 283 -275 0
-285 -283 0
-285 275 0
286 284 285 0
-286 -284 0
-286 -285 0
287 185 -286 0
-287 -185 0
-287 286 0
288 -185 286 0
-288 185 0
-288 -286 0
289 287 288 0
-289 -287 0
-289 -288 0
290 -3 -13 0
-290 3 0
-290 13 0
291 -290 199 0
-291 290 0
-291 -199 0
292 199 282 0
-292 -199 0
-292 -282 0
293 -3 -13 0
-293 3 0
-293 13 0
294 -293 282 0
-294 293 0
-294 -282 0
295 292 294 0
-295 -292 0
-295 -294 0
296 -295 291 0
-296 295 0
-296 -291 0
297 -3 -13 0
-297 3 0
-297 13 0
298 -297 -282 0
-298 297 0
-298 282 0
299 297 282 0
-299 -297 0
-299 -282 0
300 299 298 0
-300 -299 0
-300 -298 0
301 -300 199 0
-301 300 0
-301 -199 0
302 300 -199 0
-302 -300 0
-302 199 0
303 301 302 0
-303 -301 0
-303 -302 0
304 -4 -13 0
-304 4 0
-304 13 0
305 -304 213 0
-305 304 0
-305 -213 0
306 213 296 0
-306 -213 0
-306 -296 0
307 -4 -13 0
-307 4 0
-307 13 0
308 -307 296 0
-308 307 0
-308 -296 0
309 308 306 0
-309 -308 0
-309 -306 0
310 305 -309 0
-310 -305 0
-310 309 0
311 -4 -13 0
-311 4 0
-311 13 0
312 -311 -296 0
-312 311 0
-312 296 0
313 311 296 0
-313 -311 0
-313 -296 0
314 312 313 0
-314 -312 0
-314 -313 0
315 213 -314 0
-315 -213 0
-315 314 0
316 -213 314 0
-316 213 0
-316 -314 0
317 316 315 0
-317 -316 0
-317 -315 0
318 -5 -13 0
-318 5 0
-318 13 0
319 -318 227 0
-319 318 0
-319 -227 0
320 310 227 0
-320 -310 0
-320 -227 0
321 -5 -13 0
-321 5 0
-321 13 0
322 -321 310 0
-322 321 0
-322 -310 0
323 322 320 0
-323 -322 0
-323 -320 0
324 -323 319 0
-324 323 0
-324 -319 0
325 -5 -13 0
-325 5 0
-325 13 0
326 -325 -310 0
-326 325 0
-326 310 0
327 325 310 0
-327 -325 0
-327 -310 0
328 327 326 0
-328 -327 0
-328 -326 0
329 -328 227 0
-329 328 0
-329 -227 0
330 328 -227 0
-330 -328 0
-330 227 0
331 330 329 0
-331 -330 0
-331 -329 0
332 -6 -13 0
-332 6 0
-332 13 0
333 -332 241 0
-333 332 0
-333 -241 0
334 241 324 0
-334 -241 0
-334 -324 0
335 -6 -13 0
-335 6 0
-335 13 0
336 -335 324 0
-336 335 0
-336 -324 0
337 334 336 0
-337 -334 0
-337 -336 0
338 333 -337 0
-338 -333 0
-338 337 0
339 -6 -13 0
-339 6 0
-339 13 0
340 -339 -324 0
-340 339 0
-340 324 0
341 339 324 0
-341 -339 0
-341 -324 0
342 341 340 0
-342 -341 0
-342 -340 0
343 -342 241 0
-343 342 0
-343 -241 0
344 342 -241 0
-344 -342 0
-344 241 0
345 344 343 0
-345 -344 0
-345 -343 0
346 -7 -13 0
-346 7 0
-346 13 0
347 -346 255 0
-347 346 0
-347 -255 0
348 255 338 0
-348 -255 0
-348 -338 0
349 -7 -13 0
-349 7 0
-349 13 0
350 -349 338 0
-350 349 0
-350 -338 0
351 348 350 0
-351 -348 0
-351 -350 0
352 347 -351 0
-352 -347 0
-352 351 0
353 -7 -13 0
-353 7 0
-353 13 0
354 -353 -338 0
-354 353 0
-354 338 0
355 353 338 0
-355 -353 0
-355 -338 0
356 355 354 0
-356 -355 0
-356 -354 0
357 255 -356 0
-357 -255 0
-357 356 0
358 -255 356 0
-358 255 0
-358 -356 0
359 357 358 0
-359 -357 0
-359 -358 0
360 -8 -13 0
-360 8 0
-360 13 0
361 -360 269 0
-361 360 0
-361 -269 0
362 352 269 0
-362 -352 0
-362 -269 0
363 -8 -13 0
-363 8 0
-363 13 0
364 -363 352 0
-364 363 0
-364 -352 0
365 364 362 0
-365 -364 0
-365 -362 0
366 361 -365 0
-366 -361 0
-366 365 0
367 -8 -13 0
-367 8 0
-367 13 0
368 -367 -352 0
-368 367 0
-368 352 0
369 367 352 0
-369 -367 0
-369 -352 0
370 369 368 0
-370 -369 0
-370 -368 0
371 269 -370 0
-371 -269 0
-371 370 0
372 -269 370 0
-372 269 0
-372 -370 0
373 372 371 0
-373 -372 0
-373 -371 0
374 -9 -13 0
-374 9 0
-374 13 0
375 -374 262 0
-375 374 0
-375 -262 0
376 262 366 0
-376 -262 0
-376 -366 0
377 -9 -13 0
-377 9 0
-377 13 0
378 -377 366 0
-378 377 0
-378 -366 0
379 376 378 0
-379 -376 0
-379 -378 0
380 -379 375 0
-380 379 0
-380 -375 0
381 -9 -13 0
-381 9 0
-381 13 0
382 -381 -366 0
-382 381 0
-382 366 0
383 381 366 0
-383 -381 0
-383 -366 0
384 383 382 0
-384 -383 0
-384 -382 0
385 -384 262 0
-385 384 0
-385 -262 0
386 384 -262 0
-386 -384 0
-386 262 0
387 386 385 0
-387 -386 0
-387 -385 0
388 -1 -14 0
-388 1 0
-388 14 0
389 388 289 0
-389 -388 0
-389 -289 0
390 -388 -289 0
-390 388 0
-390 289 0
391 390 389 0
-391 -390 0
-391 -389 0
392 -1 -14 0
-392 1 0
-392 14 0
393 -392 289 0
-393 392 0
-393 -289 0
394 -2 -14 0
-394 2 0
-394 14 0
395 -394 303 0
-395 394 0
-395 -303 0
396 303 -393 0
-396 -303 0
-396 393 0
397 -2 -14 0
-397 2 0
-397 14 0
398 -397 -393 0
-398 397 0
-398 393 0
399 396 398 0
-399 -396 0
-399 -398 0
400 -399 395 0
-400 399 0
-400 -395 0
401 -2 -14 0
-401 2 0
-401 14 0
402 -401 393 0
-402 401 0
-402 -393 0
403 401 -393 0
-403 -401 0
-403 393 0
404 403 402 0
-404 -403 0
-404 -402 0
405 303 -404 0
-405 -303 0
-405 404 0
406 -303 404 0
-406 303 0
-406 -404 0
407 405 406 0
-407 -405 0
-407 -406 0
408 -3 -14 0
-408 3 0
-408 14 0
409 -408 317 0
-409 408 0
-409 -317 0
410 317 400 0
-410 -317 0
-410 -400 0
411 -3 -14 0
-411 3 0
-411 14 0
412 -411 400 0
-412 411 0
-412 -400 0
413 410 412 0
-413 -410 0
-413 -412 0
414 -413 409 0
-414 413 0
-414 -409 0
415 -3 -14 0
-415 3 0
-415 14 0
416 -415 -400 0
-416 415 0
-416 400 0
417 415 400 0
-417 -415 0
-417 -400 0
418 416 417 0
-418 -416 0
-418 -417 0
419 -418 317 0
-419 418 0
-419 -317 0
420 418 -317 0
-420 -418 0
-420 317 0
421 420 419 0
-421 -420 0
-421 -419 0
422 -4 -14 0
-422 4 0
-422 14 0
423 -422 331 0
-423 422 0
-423 -331 0
424 414 331 0
-424 -414 0
-424 -331 0
425 -4 -14 0
-425 4 0
-425 14 0
426 -425 414 0
-426 425 0
-426 -414 0
427 424 426 0
-427 -424 0
-427 -426 0
428 -427 423 0
-428 427 0
-428 -423 0
429 -4 -14 0
-429 4 0
-429 14 0
430 -429 -414 0
-430 429 0
-430 414 0
431 429 414 0
-431 -429 0
-431 -414 0
432 430 431 0
-432 -430 0
-432 -431 0
433 331 -432 0
-433 -331 0
-433 432 0
434 -331 432 0
-434 331 0
-434 -432 0
435 433 434 0
-435 -433 0
-435 -434 0
436 -5 -14 0
-436 5 0
-436 14 0
437 -436 345 0
-437 436 0
-437 -345 0
438 428 345 0
-438 -428 0
-438 -345 0
439 -5 -14 0
-439 5 0
-439 14 0
440 -439 428 0
-440 439 0
-440 -428 0
441 438 440 0
-441 -438 0
-441 -440 0
442 -441 437 0
-442 441 0
-442 -437 0
443 -5 -14 0
-443 5 0
-443 14 0
444 -443 -428 0
-444 443 0
-444 428 0
445 443 428 0
-445 -443 0
-445 -428 0
446 444 445 0
-446 -444 0
-446 -445 0
447 -446 345 0
-447 446 0
-447 -345 0
448 446 -345 0
-448 -446 0
-448 345 0
449 448 447 0
-449 -448 0
-449 -447 0
450 -6 -14 0
-450 6 0
-450 14 0
451 -450 359 0
-451 450 0
-451 -359 0
452 442 359 0
-452 -442 0
-452 -359 0
453 -6 -14 0
-453 6 0
-453 14 0
454 -453 442 0
-454 453 0
-454 -442 0
455 452 454 0
-455 -452 0
-455 -454 0
456 451 -455 0
-456 -451 0
-456 455 0
457 -6 -14 0
-457 6 0
-457 14 0
458 -457 -442 0
-458 457 0
-458 442 0
459 457 442 0
-459 -457 0
-459 -442 0
460 459 458 0
-460 -459 0
-460 -458 0
461 359 -460 0
-461 -359 0
-461 460 0
462 -359 460 0
-462 359 0
-462 -460 0
463 461 462 0
-463 -461 0
-463 -462 0
464 -7 -14 0
-464 7 0
-464 14 0
465 -464 373 0
-465 464 0
-465 -373 0
466 456 373 0
-466 -456 0
-466 -373 0
467 -7 -14 0
-467 7 0
-467 14 0
468 -467 456 0
-468 467 0
-468 -456 0
469 468 466 0
-469 -468 0
-469 -466 0
470 -469 465 0
-470 469 0
-470 -465 0
471 -7 -14 0
-471 7 0
-471 14 0
472 -471 -456 0
-472 471 0
-472 456 0
473 471 456 0
-473 -471 0
-473 -456 0
474 473 472 0
-474 -473 0
-474 -472 0
475 -474 373 0
-475 474 0
-475 -373 0
476 474 -373 0
-476 -474 0
-476 373 0
477 475 476 0
-477 -475 0
-477 -476 0
478 -8 -14 0
-478 8 0
-478 14 0
479 -478 387 0
-479 478 0
-479 -387 0
480 470 387 0
-480 -470 0
-480 -387 0
481 -8 -14 0
-481 8 0
-481 14 0
482 -481 470 0
-482 481 0
-482 -470 0
483 480 482 0
-483 -480 0
-483 -482 0
484 -483 479 0
-484 483 0
-484 -479 0
485 -8 -14 0
-485 8 0
-485 14 0
486 -485 -470 0
-486 485 0
-486 470 0
487 485 470 0
-487 -485 0
-487 -470 0
488 487 486 0
-488 -487 0
-488 -486 0
489 -488 387 0
-489 488 0
-489 -387 0
490 488 -387 0
-490 -488 0
-490 387 0
491 490 489 0
-491 -490 0
-491 -489 0
492 -9 -14 0
-492 9 0
-492 14 0
493 -492 380 0
-493 492 0
-493 -380 0
494 380 484 0
-494 -380 0
-494 -484 0
495 -9 -14 0
-495 9 0
-495 14 0
496 -495 484 0
-496 495 0
-496 -484 0
497 494 496 0
-497 -494 0
-497 -496 0
498 -497 493 0
-498 497 0
-498 -493 0
499 -9 -14 0
-499 9 0
-499 14 0
500 -499 -484 0
-500 499 0
-500 484 0
501 499 484 0
-501 -499 0
-501 -484 0
502 501 500 0
-502 -501 0
-502 -500 0
503 380 -502 0
-503 -380 0
-503 502 0
504 -380 502 0
-504 380 0
-504 -502 0
505 504 503 0
-505 -504 0
-505 -503 0
506 -1 -15 0
-506 1 0
-506 15 0
507 506 407 0
-507 -506 0
-507 -407 0
508 -506 -407 0
-508 506 0
-508 407 0
509 507 508 0
-509 -507 0
-509 -508 0
510 -1 -15 0
-510 1 0
-510 15 0
511 -510 407 0
-511 510 0
-511 -407 0
512 -2 -15 0
-512 2 0
-512 15 0
513 -512 421 0
-513 512 0
-513 -421 0
514 421 -511 0
-514 -421 0
-514 511 0
515 -2 -15 0
-515 2 0
-515 15 0
516 -515 -511 0
-516 515 0
-516 511 0
517 514 516 0
-517 -514 0
-517 -516 0
518 513 -517 0
-518 -513 0
-518 517 0
519 -2 -15 0
-519 2 0
-519 15 0
520 -519 511 0
-520 519 0
-520 -511 0
521 519 -511 0
-521 -519 0
-521 511 0
522 520 521 0
-522 -520 0
-522 -521 0
523 421 -522 0
-523 -421 0
-523 522 0
524 -421 522 0
-524 421 0
-524 -522 0
525 523 524 0
-525 -523 0
-525 -524 0
526 -3 -15 0
-526 3 0
-526 15 0
527 -526 435 0
-527 526 0
-527 -435 0
528 435 518 0
-528 -435 0
-528 -518 0
529 -3 -15 0
-529 3 0
-529 15 0
530 -529 518 0
-530 529 0
-530 -518 0
531 530 528 0
-531 -530 0
-531 -528 0
532 527 -531 0
-532 -527 0
-532 531 0
533 -3 -15 0
-533 3 0
-533 15 0
534 -533 -518 0
-534 533 0
-534 518 0
535 533 518 0
-535 -533 0
-535 -518 0
536 534 535 0
-536 -534 0
-536 -535 0
537 435 -536 0
-537 -435 0
-537 536 0
538 -435 536 0
-538 435 0
-538 -536 0
539 537 538 0
-539 -537 0
-539 -538 0
540 -4 -15 0
-540 4 0
-540 15 0
541 -540 449 0
-541 540 0
-541 -449 0
542 449 532 0
-542 -449 0
-542 -532 0
543 -4 -15 0
-543 4 0
-543 15 0
544 -543 532 0
-544 543 0
-544 -532 0
545 544 542 0
-545 -544 0
-545 -542 0
546 -545 541 0
-546 545 0
-546 -541 0
547 -4 -15 0
-547 4 0
-547 15 0
548 -547 -532 0
-548 547 0
-548 532 0
549 547 532 0
-549 -547 0
-549 -532 0
550 549 548 0
-550 -549 0
-550 -548 0
551 -550 449 0
-551 550 0
-551 -449 0
552 550 -449 0
-552 -550 0
-552 449 0
553 551 552 0
-553 -551 0
-553 -552 0
554 -5 -15 0
-554 5 0
-554 15 0
555 -554 463 0
-555 554 0
-555 -463 0
556 546 463 0
-556 -546 0
-556 -463 0
557 -5 -15 0
-557 5 0
-557 15 0
558 -557 546 0
-558 557 0
-558 -546 0
559 558 556 0
-559 -558 0
-559 -556 0
560 -559 555 0
-560 559 0
-560 -555 0
561 -5 -15 0
-561 5 0
-561 15 0
562 -561 -546 0
-562 561 0
-562 546 0
563 561 546 0
-563 -561 0
-563 -546 0
564 563 562 0
-564 -563 0
-564 -562 0
565 -564 463 0
-565 564 0
-565 -463 0
566 564 -463 0
-566 -564 0
-566 463 0
567 565 566 0
-567 -565 0
-567 -566 0
568 -6 -15 0
-568 6 0
-568 15 0
569 -568 477 0
-569 568 0
-569 -477 0
570 477 560 0
-570 -477 0
-570 -560 0
571 -6 -15 0
-571 6 0
-571 15 0
572 -571 560 0
-572 571 0
-572 -560 0
573 570 572 0
-573 -570 0
-573 -572 0
574 -573 569 0
-574 573 0
-574 -569 0
575 -6 -15 0
-575 6 0
-575 15 0
576 -575 -560 0
-576 575 0
-576 560 0
577 575 560 0
-577 -575 0
-577 -560 0
578 577 576 0
-578 -577 0
-578 -576 0
579 -578 477 0
-579 578 0
-579 -477 0
580 578 -477 0
-580 -578 0
-580 477 0
581 580 579 0
-581 -580 0
-581 -579 0
582 -7 -15 0
-582 7 0
-582 15 0
583 -582 491 0
-583 582 0
-583 -491 0
584 491 574 0
-584 -491 0
-584 -574 0
585 -7 -15 0
-585 7 0
-585 15 0
586 -585 574 0
-586 585 0
-586 -574 0
587 584 586 0
-587 -584 0
-587 -586 0
588 -587 583 0
-588 587 0
-588 -583 0
589 -7 -15 0
-589 7 0
-589 15 0
590 -589 -574 0
-590 589 0
-590 574 0
591 589 574 0
-591 -589 0
-591 -574 0
592 591 590 0
-592 -591 0
-592 -590 0
593 491 -592 0
-593 -491 0
-593 592 0
594 -491 592 0
-594 491 0
-594 -592 0
595 593 594 0
-595 -593 0
-595 -594 0
596 -8 -15 0
-596 8 0
-596 15 0
597 -596 505 0
-597 596 0
-597 -505 0
598 505 588 0
-598 -505 0
-598 -588 0
599 -8 -15 0
-599 8 0
-599 15 0
600 -599 588 0
-600 599 0
-600 -588 0
601 598 600 0
-601 -598 0
-601 -600 0
602 597 -601 0
-602 -597 0
-602 601 0
603 -8 -15 0
-603 8 0
-603 15 0
604 -603 -588 0
-604 603 0
-604 588 0
605 603 588 0
-605 -603 0
-605 -588 0
606 604 605 0
-606 -604 0
-606 -605 0
607 505 -606 0
-607 -505 0
-607 606 0
608 -505 606 0
-608 505 0
-608 -606 0
609 607 608 0
-609 -607 0
-609 -608 0
610 -9 -15 0
-610 9 0
-610 15 0
611 -610 498 0
-611 610 0
-611 -498 0
612 602 498 0
-612 -602 0
-612 -498 0
613 -9 -15 0
-613 9 0
-613 15 0
614 -613 602 0
-614 613 0
-614 -602 0
615 612 614 0
-615 -612 0
-615 -614 0
616 -615 611 0
-616 615 0
-616 -611 0
617 -9 -15 0
-617 9 0
-617 15 0
618 -617 -602 0
-618 617 0
-618 602 0
619 617 602 0
-619 -617 0
-619 -602 0
620 618 619 0
-620 -618 0
-620 -619 0
621 -620 498 0
-621 620 0
-621 -498 0
622 620 -498 0
-622 -620 0
-622 498 0
623 622 621 0
-623 -622 0
-623 -621 0
624 -1 -16 0
-624 1 0
-624 16 0
625 624 525 0
-625 -624 0
-625 -525 0
626 -624 -525 0
-626 624 0
-626 525 0
627 625 626 0
-627 -625 0
-627 -626 0
628 -1 -16 0
-628 1 0
-628 16 0
629 -628 525 0
-629 628 0
-629 -525 0
630 -2 -16 0
-630 2 0
-630 16 0
631 -630 539 0
-631 630 0
-631 -539 0
632 539 -629 0
-632 -539 0
-632 629 0
633 -2 -16 0
-633 2 0
-633 16 0
634 -633 -629 0
-634 633 0
-634 629 0
635 632 634 0
-635 -632 0
-635 -634 0
636 -635 631 0
-636 635 0
-636 -631 0
637 -2 -16 0
-637 2 0
-637 16 0
638 -637 629 0
-638 637 0
-638 -629 0
639 637 -629 0
-639 -637 0
-639 629 0
640 638 639 0
-640 -638 0
-640 -639 0
641 539 -640 0
-641 -539 0
-641 640 0
642 -539 640 0
-642 539 0
-642 -640 0
643 642 641 0
-643 -642 0
-643 -641 0
644 -3 -16 0
-644 3 0
-644 16 0
645 -644 553 0
-645 644 0
-645 -553 0
646 636 553 0
-646 -636 0
-646 -553 0
647 -3 -16 0
-647 3 0
-647 16 0
648 -647 636 0
-648 647 0
-648 -636 0
649 646 648 0
-649 -646 0
-649 -648 0
650 -649 645 0
-650 649 0
-650 -645 0
651 -3 -16 0
-651 3 0
-651 16 0
652 -651 -636 0
-652 651 0
-652 636 0
653 651 636 0
-653 -651 0
-653 -636 0
654 652 653 0
-654 -652 0
-654 -653 0
655 -654 553 0
-655 654 0
-655 -553 0
656 654 -553 0
-656 -654 0
-656 553 0
657 655 656 0
-657 -655 0
-657 -656 0
658 -4 -16 0
-658 4 0
-658 16 0
659 -658 567 0
-659 658 0
-659 -567 0
660 650 567 0
-660 -650 0
-660 -567 0
661 -4 -16 0
-661 4 0
-661 16 0
662 -661 650 0
-662 661 0
-662 -650 0
663 662 660 0
-663 -662 0
-663 -660 0
664 -663 659 0
-664 663 0
-664 -659 0
665 -4 -16 0
-665 4 0
-665 16 0
666 -665 -650 0
-666 665 0
-666 650 0
667 665 650 0
-667 -665 0
-667 -650 0
668 666 667 0
-668 -666 0
-668 -667 0
669 567 -668 0
-669 -567 0
-669 668 0
670 -567 668 0
-670 567 0
-670 -668 0
671 669 670 0
-671 -669 0
-671 -670 0
672 -5 -16 0
-672 5 0
-672 16 0
673 -672 581 0
-673 672 0
-673 -581 0
674 581 664 0
-674 -581 0
-674 -664 0
675 -5 -16 0
-675 5 0
-675 16 0
676 -675 664 0
-676 675 0
-676 -664 0
677 674 676 0
-677 -674 0
-677 -676 0
678 673 -677 0
-678 -673 0
-678 677 0
679 -5 -16 0
-679 5 0
-679 16 0
680 -679 -664 0
-680 679 0
-680 664 0
681 679 664 0
-681 -679 0
-681 -664 0
682 680 681 0
-682 -680 0
-682 -681 0
683 581 -682 0
-683 -581 0
-683 682 0
684 -581 682 0
-684 581 0
-684 -682 0
685 683 684 0
-685 -683 0
-685 -684 0
686 -6 -16 0
-686 6 0
-686 16 0
687 -686 595 0
-687 686 0
-687 -595 0
688 678 595 0
-688 -678 0
-688 -595 0
689 -6 -16 0
-689 6 0
-689 16 0
690 -689 678 0
-690 689 0
-690 -678 0
691 688 690 0
-691 -688 0
-691 -690 0
692 -691 687 0
-692 691 0
-692 -687 0
693 -6 -16 0
-693 6 0
-693 16 0
694 -693 -678 0
-694 693 0
-694 678 0
695 693 678 0
-695 -693 0
-695 -678 0
696 695 694 0
-696 -695 0
-696 -694 0
697 -696 595 0
-697 696 0
-697 -595 0
698 696 -595 0
-698 -696 0
-698 595 0
699 698 697 0
-699 -698 0
-699 -697 0
700 -7 -16 0
-700 7 0
-700 16 0
701 -700 609 0
-701 700 0
-701 -609 0
702 609 692 0
-702 -609 0
-702 -692 0
703 -7 -16 0
-703 7 0
-703 16 0
704 -703 692 0
-704 703 0
-704 -692 0
705 704 702 0
-705 -704 0
-705 -702 0
706 701 -705 0
-706 -701 0
-706 705 0
707 -7 -16 0
-707 7 0
-707 16 0
708 -707 -692 0
-708 707 0
-708 692 0
709 707 692 0
-709 -707 0
-709 -692 0
710 708 709 0
-710 -708 0
-710 -709 0
711 609 -710 0
-711 -609 0
-711 710 0
712 -609 710 0
-712 609 0
-712 -710 0
713 712 711 0
-713 -712 0
-713 -711 0
714 -8 -16 0
-714 8 0
-714 16 0
715 -714 623 0
-715 714 0
-715 -623 0
716 706 623 0
-716 -706 0
-716 -623 0
717 -8 -16 0
-717 8 0
-717 16 0
718 -717 706 0
-718 717 0
-718 -706 0
719 718 716 0
-719 -718 0
-719 -716 0
720 -719 715 0
-720 719 0
-720 -715 0
721 -8 -16 0
-721 8 0
-721 16 0
722 -721 -706 0
-722 721 0
-722 706 0
723 721 706 0
-723 -721 0
-723 -706 0
724 723 722 0
-724 -723 0
-724 -722 0
725 -724 623 0
-725 724 0
-725 -623 0
726 724 -623 0
-726 -724 0
-726 623 0
727 725 726 0
-727 -725 0
-727 -726 0
728 -9 -16 0
-728 9 0
-728 16 0
729 -728 616 0
-729 728 0
-729 -616 0
730 720 616 0
-730 -720 0
-730 -616 0
731 -9 -16 0
-731 9 0
-731 16 0
732 -731 720 0
-732 731 0
-732 -720 0
733 732 730 0
-733 -732 0
-733 -730 0
734 729 -733 0
-734 -729 0
-734 733 0
735 -9 -16 0
-735 9 0
-735 16 0
736 -735 -720 0
-736 735 0
-736 720 0
737 735 720 0
-737 -735 0
-737 -720 0
738 736 737 0
-738 -736 0
-738 -737 0
739 -738 616 0
-739 738 0
-739 -616 0
740 738 -616 0
-740 -738 0
-740 616 0
741 739 740 0
-741 -739 0
-741 -740 0
742 -1 -17 0
-742 1 0
-742 17 0
743 742 643 0
-743 -742 0
-743 -643 0
744 -742 -643 0
-744 742 0
-744 643 0
745 743 744 0
-745 -743 0
-745 -744 0
746 -1 -17 0
-746 1 0
-746 17 0
747 -746 643 0
-747 746 0
-747 -643 0
748 -2 -17 0
-748 2 0
-748 17 0
749 -748 657 0
-749 748 0
-749 -657 0
750 657 -747 0
-750 -657 0
-750 747 0
751 -2 -17 0
-751 2 0
-751 17 0
752 -751 -747 0
-752 751 0
-752 747 0
753 750 752 0
-753 -750 0
-753 -752 0
754 749 -753 0
-754 -749 0
-754 753 0
755 -2 -17 0
-755 2 0
-755 17 0
756 -755 747 0
-756 755 0
-756 -747 0
757 755 -747 0
-757 -755 0
-757 747 0
758 757 756 0
-758 -757 0
-758 -756 0
759 657 -758 0
-759 -657 0
-759 758 0
760 -657 758 0
-760 657 0
-760 -758 0
761 760 759 0
-761 -760 0
-761 -759 0
762 -3 -17 0
-762 3 0
-762 17 0
763 -762 671 0
-763 762 0
-763 -671 0
764 754 671 0
-764 -754 0
-764 -671 0
765 -3 -17 0
-765 3 0
-765 17 0
766 -765 754 0
-766 765 0
-766 -754 0
767 764 766 0
-767 -764 0
-767 -766 0
768 763 -767 0
-768 -763 0
-768 767 0
769 -3 -17 0
-769 3 0
-769 17 0
770 -769 -754 0
-770 769 0
-770 754 0
771 769 754 0
-771 -769 0
-771 -754 0
772 770 771 0
-772 -770 0
-772 -771 0
773 671 -772 0
-773 -671 0
-773 772 0
774 -671 772 0
-774 671 0
-774 -772 0
775 774 773 0
-775 -774 0
-775 -773 0
776 -4 -17 0
-776 4 0
-776 17 0
777 -776 685 0
-777 776 0
-777 -685 0
778 685 768 0
-778 -685 0
-778 -768 0
779 -4 -17 0
-779 4 0
-779 17 0
780 -779 768 0
-780 779 0
-780 -768 0
781 780 778 0
-781 -780 0
-781 -778 0
782 -781 777 0
-782 781 0
-782 -777 0
783 -4 -17 0
-783 4 0
-783 17 0
784 -783 -768 0
-784 783 0
-784 768 0
785 783 768 0
-785 -783 0
-785 -768 0
786 785 784 0
-786 -785 0
-786 -784 0
787 -786 685 0
-787 786 0
-787 -685 0
788 786 -685 0
-788 -786 0
-788 685 0
789 787 788 0
-789 -787 0
-789 -788 0
790 -5 -17 0
-790 5 0
-790 17 0
791 -790 699 0
-791 790 0
-791 -699 0
792 782 699 0
-792 -782 0
-792 -699 0
793 -5 -17 0
-793 5 0
-793 17 0
794 -793 782 0
-794 793 0
-794 -782 0
795 794 792 0
-795 -794 0
-795 -792 0
796 -795 791 0
-796 795 0
-796 -791 0
797 -5 -17 0
-797 5 0
-797 17 0
798 -797 -782 0
-798 797 0
-798 782 0
799 797 782 0
-799 -797 0
-799 -782 0
800 799 798 0
-800 -799 0
-800 -798 0
801 699 -800 0
-801 -699 0
-801 800 0
802 -699 800 0
-802 699 0
-802 -800 0
803 801 802 0
-803 -801 0
-803 -802 0
804 -6 -17 0
-804 6 0
-804 17 0
805 -804 713 0
-805 804 0
-805 -713 0
806 713 796 0
-806 -713 0
-806 -796 0
807 -6 -17 0
-807 6 0
-807 17 0
808 -807 796 0
-808 807 0
-808 -796 0
809 806 808 0
-809 -806 0
-809 -808 0
810 805 -809 0
-810 -805 0
-810 809 0
811 -6 -17 0
-811 6 0
-811 17 0
812 -811 -796 0
-812 811 0
-812 796 0
813 811 796 0
-813 -811 0
-813 -796 0
814 813 812 0
-814 -813 0
-814 -812 0
815 713 -814 0
-815 -713 0
-815 814 0
816 -713 814 0
-816 713 0
-816 -814 0
817 816 815 0
-817 -816 0
-817 -815 0
818 -7 -17 0
-818 7 0
-818 17 0
819 -818 727 0
-819 818 0
-819 -727 0
820 727 810 0
-820 -727 0
-820 -810 0
821 -7 -17 0
-821 7 0
-821 17 0
822 -821 810 0
-822 821 0
-822 -810 0
823 822 820 0
-823 -822 0
-823 -820 0
824 819 -823 0
-824 -819 0
-824 823 0
825 -7 -17 0
-825 7 0
-825 17 0
826 -825 -810 0
-826 825 0
-826 810 0
827 825 810 0
-827 -825 0
-827 -810 0
828 826 827 0
-828 -826 0
-828 -827 0
829 727 -828 0
-829 -727 0
-829 828 0
830 -727 828 0
-830 727 0
-830 -828 0
831 830 829 0
-831 -830 0
-831 -829 0
832 -8 -17 0
-832 8 0
-832 17 0
833 -832 741 0
-833 832 0
-833 -741 0
834 741 824 0
-834 -741 0
-834 -824 0
835 -8 -17 0
-835 8 0
-835 17 0
836 -835 824 0
-836 835 0
-836 -824 0
837 834 836 0
-837 -834 0
-837 -836 0
838 833 -837 0
-838 -833 0
-838 837 0
839 -8 -17 0
-839 8 0
-839 17 0
840 -839 -824 0
-840 839 0
-840 824 0
841 839 824 0
-841 -839 0
-841 -824 0
842 840 841 0
-842 -840 0
-842 -841 0
843 741 -842 0
-843 -741 0
-843 842 0
844 -741 842 0
-844 741 0
-844 -842 0
845 843 844 0
-845 -843 0
-845 -844 0
846 -9 -17 0
-846 9 0
-846 17 0
847 -846 734 0
-847 846 0
-847 -734 0
848 734 838 0
-848 -734 0
-848 -838 0
849 -9 -17 0
-849 9 0
-849 17 0
850 -849 838 0
-850 849 0
-850 -838 0
851 850 848 0
-851 -850 0
-851 -848 0
852 -851 847 0
-852 851 0
-852 -847 0
853 -9 -17 0
-853 9 0
-853 17 0
854 -853 -838 0
-854 853 0
-854 838 0
855 853 838 0
-855 -853 0
-855 -838 0
856 854 855 0
-856 -854 0
-856 -855 0
857 -856 734 0
-857 856 0
-857 -734 0
858 856 -734 0
-858 -856 0
-858 734 0
859 858 857 0
-859 -858 0
-859 -857 0
860 -1 -18 0
-860 1 0
-860 18 0
861 860 761 0
-861 -860 0
-861 -761 0
862 -860 -761 0
-862 860 0
-862 761 0
863 862 861 0
-863 -862 0
-863 -861 0
864 -1 -18 0
-864 1 0
-864 18 0
865 -864 761 0
-865 864 0
-865 -761 0
866 -2 -18 0
-866 2 0
-866 18 0
867 -866 775 0
-867 866 0
-867 -775 0
868 -865 775 0
-868 865 0
-868 -775 0
869 -2 -18 0
-869 2 0
-869 18 0
870 -869 -865 0
-870 869 0
-870 865 0
871 870 868 0
-871 -870 0
-871 -868 0
872 -871 867 0
-872 871 0
-872 -867 0
873 -2 -18 0
-873 2 0
-873 18 0
874 -873 865 0
-874 873 0
-874 -865 0
875 873 -865 0
-875 -873 0
-875 865 0
876 874 875 0
-876 -874 0
-876 -875 0
877 -876 775 0
-877 876 0
-877 -775 0
878 876 -775 0
-878 -876 0
-878 775 0
879 877 878 0
-879 -877 0
-879 -878 0
880 -3 -18 0
-880 3 0
-880 18 0
881 -880 789 0
-881 880 0
-881 -789 0
882 789 872 0
-882 -789 0
-882 -872 0
883 -3 -18 0
-883 3 0
-883 18 0
884 -883 872 0
-884 883 0
-884 -872 0
885 882 884 0
-885 -882 0
-885 -884 0
886 881 -885 0
-886 -881 0
-886 885 0
887 -3 -18 0
-887 3 0
-887 18 0
888 -887 -872 0
-888 887 0
-888 872 0
889 887 872 0
-889 -887 0
-889 -872 0
890 888 889 0
-890 -888 0
-890 -889 0
891 789 -890 0
-891 -789 0
-891 890 0
892 -789 890 0
-892 789 0
-892 -890 0
893 892 891 0
-893 -892 0
-893 -891 0
894 -4 -18 0
-894 4 0
-894 18 0
895 -894 803 0
-895 894 0
-895 -803 0
896 803 886 0
-896 -803 0
-896 -886 0
897 -4 -18 0
-897 4 0
-897 18 0
898 -897 886 0
-898 897 0
-898 -886 0
899 898 896 0
-899 -898 0
-899 -896 0
900 895 -899 0
-900 -895 0
-900 899 0
901 -4 -18 0
-901 4 0
-901 18 0
902 -901 -886 0
-902 901 0
-902 886 0
903 901 886 0
-903 -901 0
-903 -886 0
904 902 903 0
-904 -902 0
-904 -903 0
905 803 -904 0
-905 -803 0
-905 904 0
906 -803 904 0
-906 803 0
-906 -904 0
907 905 906 0
-907 -905 0
-907 -906 0
908 -5 -18 0
-908 5 0
-908 18 0
909 -908 817 0
-909 908 0
-909 -817 0
910 900 817 0
-910 -900 0
-910 -817 0
911 -5 -18 0
-911 5 0
-911 18 0
912 -911 900 0
-912 911 0
-912 -900 0
913 910 912 0
-913 -910 0
-913 -912 0
914 909 -913 0
-914 -909 0
-914 913 0
915 -5 -18 0
-915 5 0
-915 18 0
916 -915 -900 0
-916 915 0
-916 900 0
917 915 900 0
-917 -915 0
-917 -900 0
918 917 916 0
-918 -917 0
-918 -916 0
919 -918 817 0
-919 918 0
-919 -817 0
920 918 -817 0
-920 -918 0
-920 817 0
921 920 919 0
-921 -920 0
-921 -919 0
922 -6 -18 0
-922 6 0
-922 18 0
923 -922 831 0
-923 922 0
-923 -831 0
924 831 914 0
-924 -831 0
-924 -914 0
925 -6 -18 0
-925 6 0
-925 18 0
926 -925 914 0
-926 925 0
-926 -914 0
927 926 924 0
-927 -926 0
-927 -924 0
928 -927 923 0
-928 927 0
-928 -923 0
929 -6 -18 0
-929 6 0
-929 18 0
930 -929 -914 0
-930 929 0
-930 914 0
931 929 914 0
-931 -929 0
-931 -914 0
932 931 930 0
-932 -931 0
-932 -930 0
933 -932 831 0
-933 932 0
-933 -831 0
934 932 -831 0
-934 -932 0
-934 831 0
935 933 934 0
-935 -933 0
-935 -934 0
936 -7 -18 0
-936 7 0
-936 18 0
937 -936 845 0
-937 936 0
-937 -845 0
938 845 928 0
-938 -845 0
-938 -928 0
939 -7 -18 0
-939 7 0
-939 18 0
940 -939 928 0
-940 939 0
-940 -928 0
941 938 940 0
-941 -938 0
-941 -940 0
942 937 -941 0
-942 -937 0
-942 941 0
943 -7 -18 0
-943 7 0
-943 18 0
944 -943 -928 0
-944 943 0
-944 928 0
945 943 928 0
-945 -943 0
-945 -928 0
946 944 945 0
-946 -944 0
-946 -945 0
947 845 -946 0
-947 -845 0
-947 946 0
948 -845 946 0
-948 845 0
-948 -946 0
949 948 947 0
-949 -948 0
-949 -947 0
950 -8 -18 0
-950 8 0
-950 18 0
951 -950 859 0
-951 950 0
-951 -859 0
952 859 942 0
-952 -859 0
-952 -942 0
953 -8 -18 0
-953 8 0
-953 18 0
954 -953 942 0
-954 953 0
-954 -942 0
955 954 952 0
-955 -954 0
-955 -952 0
956 951 -955 0
-956 -951 0
-956 955 0
957 -8 -18 0
-957 8 0
-957 18 0
958 -957 -942 0
-958 957 0
-958 942 0
959 957 942 0
-959 -957 0
-959 -942 0
960 958 959 0
-960 -958 0
-960 -959 0
961 859 -960 0
-961 -859 0
-961 960 0
962 -859 960 0
-962 859 0
-962 -960 0
963 962 961 0
-963 -962 0
-963 -961 0
964 -9 -18 0
-964 9 0
-964 18 0
965 -964 852 0
-965 964 0
-965 -852 0
966 956 852 0
-966 -956 0
-966 -852 0
967 -9 -18 0
-967 9 0
-967 18 0
968 -967 956 0
-968 967 0
-968 -956 0
969 968 966 0
-969 -968 0
-969 -966 0
970 965 -969 0
-970 -965 0
-970 969 0
971 -9 -18 0
-971 9 0
-971 18 0
972 -971 -956 0
-972 971 0
-972 956 0
973 971 956 0
-973 -971 0
-973 -956 0
974 972 973 0
-974 -972 0
-974 -973 0
975 852 -974 0
-975 -852 0
-975 974 0
976 -852 974 0
-976 852 0
-976 -974 0
977 976 975 0
-977 -976 0
-977 -975 0
978 -1 -10 0
-978 1 0
-978 10 0
-979 978 0
979 -978 0
-980 -23 0
980 23 0
-981 -155 0
981 155 0
-982 -273 0
982 273 0
-983 -391 0
983 391 0
-984 -509 0
984 509 0
-985 -627 0
985 627 0
-986 -745 0
986 745 0
-987 -863 0
987 863 0
-988 -879 0
988 879 0
-989 -893 0
989 893 0
-990 -907 0
990 907 0
-991 -921 0
991 921 0
-992 -935 0
992 935 0
-993 -949 0
993 949 0
-994 -963 0
994 963 0
-995 -977 0
995 977 0
-996 -970 0
996 970 0
-979 0
980 0
981 0
982 0
983 0
-984 0
-985 0
-986 0
987 0
988 0
-989 0
-990 0
-991 0
-992 0
-993 0
994 0
995 0
-996 0
